60
14 89
26 96
22 4
18 40
27 100
11 76
11 36
1 70
5 80
2 25
8 44
11 98
16 35
9 43
17 26
27 24
2 62
15 82
14 93
4 84
10 22
27 55
14 62
11 9
3 70
16 53
30 12
16 86
8 37
22 4
20 46
7 28
2 51
5 23
29 87
8 91
7 70
11 16
15 72
21 23
17 9
11 6
2 28
14 18
4 71
9 26
15 53
5 27
20 66
14 1
23 60
1 11
17 39
10 11
15 3
1 3
28 12
9 83
21 51
14 3
